NAME : grid
TYPE : TSP
DIMENSION : 50
EDGE_WEIGHT_TYPE : EUC_2D
NODE_COORD_SECTION
1 876674 878103
2 542779 185939
3 757588 557529
4 40062 333230
5 646674 382553
6 47566 719073
7 864734 926506
8 488351 3377
9 951413 242781
10 288538 719073
11 46275 928815
12 649852 628728
13 415856 283086
14 123921 411163
15 302904 757117
16 467001 820488
17 6650 933444
18 865502 75362
19 19255 851273
20 810416 406326
21 430352 815424
22 47566 969171
23 95846 5477
24 883554 8209
25 925848 68418
26 512144 230064
27 59531 622759
28 204576 274609
29 711504 505214
30 630694 984943
31 677491 467722
32 117637 973644
33 323159 585276
34 353659 320771
35 909145 229733
36 512202 585276
37 458590 919141
38 965217 518606
39 649852 919141
40 642355 821518
41 157543 363520
42 967825 686134
43 323159 697002
44 512202 697002
45 49943 132497
46 295170 6427
47 123921 283086
48 288538 969171
49 861333 737326
50 662513 109462
EOF
